CPXPARAM_TimeLimit                               3600
CPXPARAM_Read_DataCheck                          1
Tried aggregator 1 time.
MIP Presolve eliminated 2500 rows and 0 columns.
MIP Presolve modified 4381 coefficients.
Reduced MIP has 118080 rows, 54451 columns, and 560724 nonzeros.
Reduced MIP has 2850 binaries, 0 generals, 0 SOSs, and 0 indicators.
Presolve time = 0.09 sec. (156.48 ticks)
Found incumbent of value 11372.000000 after 0.21 sec. (298.74 ticks)
Probing fixed 0 vars, tightened 4 bounds.
Probing time = 0.04 sec. (37.37 ticks)
Tried aggregator 1 time.
Reduced MIP has 118080 rows, 54451 columns, and 560724 nonzeros.
Reduced MIP has 2850 binaries, 0 generals, 0 SOSs, and 0 indicators.
Presolve time = 0.21 sec. (226.14 ticks)
Probing time = 0.03 sec. (24.68 ticks)
MIP emphasis: balance optimality and feasibility.
MIP search method: dynamic search.
Parallel mode: deterministic, using up to 8 threads.
Root relaxation solution time = 1330.78 sec. (409430.34 ticks)

        Nodes                                         Cuts/
   Node  Left     Objective  IInf  Best Integer    Best Bound    ItCnt     Gap

*     0+    0                        11372.0000      936.0000            91.77%
*     0+    0                        11177.0000      936.0000            91.63%
      0     0     1053.3167  2627    11177.0000     1053.3167   504346   90.58%

Implied bound cuts applied:  100
Flow cuts applied:  508
Mixed integer rounding cuts applied:  706
Lift and project cuts applied:  4
Gomory fractional cuts applied:  90

Root node processing (before b&c):
  Real time             = 3600.06 sec. (2290173.52 ticks)
Parallel b&c, 8 threads:
  Real time             =    0.00 sec. (0.00 ticks)
  Sync time (average)   =    0.00 sec.
  Wait time (average)   =    0.00 sec.
                          ------------
Total (root+branch&cut) = 3600.06 sec. (2290173.52 ticks)
